
Gurobi 7.0.1 (linux64) logging started Sun Jul  2 21:14:00 2017

Optimize a model with 7234 rows, 7232 columns and 29293 nonzeros
Variable types: 0 continuous, 7232 integer (7232 binary)
Coefficient statistics:
  Matrix range     [1e+00, 9e+00]
  Objective range  [1e+00, 1e+00]
  Bounds range     [1e+00, 1e+00]
  RHS range        [1e+00, 5e+01]
Found heuristic solution: objective 10
Presolve removed 6374 rows and 6361 columns
Presolve time: 0.03s
Presolved: 860 rows, 871 columns, 5876 nonzeros
Variable types: 0 continuous, 871 integer (871 binary)

Root relaxation: objective 4.773529e+01, 86 iterations, 0.00 seconds

    Nodes    |    Current Node    |     Objective Bounds      |     Work
 Expl Unexpl |  Obj  Depth IntInf | Incumbent    BestBd   Gap | It/Node Time

     0     0   47.73529    0   48   10.00000   47.73529   377%     -    0s
     0     0   47.00000    0    8   10.00000   47.00000   370%     -    0s
     0     0   47.00000    0    7   10.00000   47.00000   370%     -    0s
     0     0   47.00000    0    8   10.00000   47.00000   370%     -    0s
     0     0   47.00000    0    2   10.00000   47.00000   370%     -    0s
     0     0   47.00000    0    2   10.00000   47.00000   370%     -    0s
H    0     0                      14.0000000   47.00000   236%     -    0s
     0     2   47.00000    0    2   14.00000   47.00000   236%     -    0s
*   40    17               6      36.0000000   42.33333  17.6%  12.4    0s
*  127    73              13      40.0000000   42.33333  5.83%   7.4    0s
*  911    11              16      41.0000000   41.50000  1.22%   3.1    1s

Cutting planes:
  Gomory: 2
  Clique: 21
  MIR: 3
  Zero half: 1
  Lazy constraints: 93

Explored 997 nodes (3231 simplex iterations) in 1.20 seconds
Thread count was 12 (of 12 available processors)

Solution count 5: 41 40 36 ... 10
Pool objective bound 41

Optimal solution found (tolerance 1.00e-04)
Best objective 4.100000000000e+01, best bound 4.100000000000e+01, gap 0.0000%
Optimize a model with 7234 rows, 7232 columns and 29293 nonzeros
Variable types: 0 continuous, 7232 integer (7232 binary)
Coefficient statistics:
  Matrix range     [1e+00, 9e+00]
  Objective range  [2e-01, 8e-01]
  Bounds range     [1e+00, 1e+00]
  RHS range        [1e+00, 5e+01]
Found heuristic solution: objective -6.4
Presolve removed 6374 rows and 6361 columns
Presolve time: 0.02s
Presolved: 860 rows, 871 columns, 5876 nonzeros

Loaded MIP start with objective 2.22045e-15

Variable types: 0 continuous, 871 integer (871 binary)

Root relaxation: objective 6.735294e+00, 86 iterations, 0.00 seconds

    Nodes    |    Current Node    |     Objective Bounds      |     Work
 Expl Unexpl |  Obj  Depth IntInf | Incumbent    BestBd   Gap | It/Node Time

     0     0    6.73529    0   48    0.00000    6.73529      -     -    0s
     0     0    6.00000    0    6    0.00000    6.00000      -     -    0s
     0     0    6.00000    0    2    0.00000    6.00000      -     -    0s
     0     0    6.00000    0    4    0.00000    6.00000      -     -    0s
H    0     0                       2.5800000    6.00000   133%     -    0s
     0     0    6.00000    0    4    2.58000    6.00000   133%     -    0s
     0     2    6.00000    0    4    2.58000    6.00000   133%     -    0s

Cutting planes:
  Gomory: 3
  Clique: 19
  MIR: 2
  Zero half: 1
  Lazy constraints: 15

Explored 43 nodes (583 simplex iterations) in 0.44 seconds
Thread count was 12 (of 12 available processors)

Solution count 2: 2.58 2.22045e-15 
Pool objective bound 2.58

Optimal solution found (tolerance 1.00e-04)
Best objective 2.580000000000e+00, best bound 2.580000000000e+00, gap 0.0000%
Optimize a model with 7234 rows, 7232 columns and 29293 nonzeros
Variable types: 0 continuous, 7232 integer (7232 binary)
Coefficient statistics:
  Matrix range     [1e+00, 9e+00]
  Objective range  [1e-01, 9e-01]
  Bounds range     [1e+00, 1e+00]
  RHS range        [1e+00, 5e+01]
Found heuristic solution: objective -8.06452
Presolve removed 6374 rows and 6361 columns
Presolve time: 0.02s
Presolved: 860 rows, 871 columns, 5876 nonzeros

Loaded MIP start with objective 7.77156e-16

Variable types: 0 continuous, 871 integer (871 binary)

Root relaxation: objective 2.574004e+00, 86 iterations, 0.00 seconds

    Nodes    |    Current Node    |     Objective Bounds      |     Work
 Expl Unexpl |  Obj  Depth IntInf | Incumbent    BestBd   Gap | It/Node Time

     0     0    2.57400    0   48    0.00000    2.57400      -     -    0s
     0     0    1.83871    0    8    0.00000    1.83871      -     -    0s
     0     0    1.83871    0    7    0.00000    1.83871      -     -    0s
     0     0    1.83871    0    8    0.00000    1.83871      -     -    0s
     0     0    1.83871    0    2    0.00000    1.83871      -     -    0s
     0     0    1.83871    0    2    0.00000    1.83871      -     -    0s
     0     2    1.83871    0    2    0.00000    1.83871      -     -    0s

Cutting planes:
  Gomory: 2
  Clique: 21
  MIR: 3
  Zero half: 1
  Lazy constraints: 9

Explored 18 nodes (600 simplex iterations) in 0.45 seconds
Thread count was 12 (of 12 available processors)

Solution count 1: 7.77156e-16 
Pool objective bound 7.77156e-16

Optimal solution found (tolerance 1.00e-04)
Best objective 7.771561172376e-16, best bound 7.771561172376e-16, gap -

Gurobi 7.0.1 (linux64) logging started Sun Jul  2 21:14:28 2017

Optimize a model with 7234 rows, 7232 columns and 29276 nonzeros
Variable types: 0 continuous, 7232 integer (7232 binary)
Coefficient statistics:
  Matrix range     [1e+00, 9e+00]
  Objective range  [1e+00, 1e+00]
  Bounds range     [1e+00, 1e+00]
  RHS range        [1e+00, 5e+01]
Found heuristic solution: objective 10
Presolve removed 6377 rows and 6361 columns
Presolve time: 0.04s
Presolved: 857 rows, 871 columns, 5856 nonzeros
Variable types: 0 continuous, 871 integer (871 binary)

Root relaxation: objective 4.773529e+01, 86 iterations, 0.00 seconds

    Nodes    |    Current Node    |     Objective Bounds      |     Work
 Expl Unexpl |  Obj  Depth IntInf | Incumbent    BestBd   Gap | It/Node Time

     0     0   47.73529    0   48   10.00000   47.73529   377%     -    0s
     0     0   47.00000    0    8   10.00000   47.00000   370%     -    0s
     0     0   47.00000    0    7   10.00000   47.00000   370%     -    0s
     0     0   47.00000    0    8   10.00000   47.00000   370%     -    0s
     0     0   47.00000    0    2   10.00000   47.00000   370%     -    0s
     0     0   47.00000    0    2   10.00000   47.00000   370%     -    0s
H    0     0                      14.0000000   47.00000   236%     -    0s
     0     2   47.00000    0    2   14.00000   47.00000   236%     -    0s
*   38    17               6      36.0000000   42.33333  17.6%  13.0    0s
*  112    70              13      39.0000000   42.00000  7.69%   8.0    0s
*  205    96              18      40.0000000   42.00000  5.00%   5.9    1s
H 1243     0                      41.0000000   41.00000  0.00%   2.7    1s

Cutting planes:
  Gomory: 2
  Clique: 21
  MIR: 3
  Zero half: 1
  Lazy constraints: 126

Explored 1263 nodes (3570 simplex iterations) in 1.58 seconds
Thread count was 12 (of 12 available processors)

Solution count 6: 41 40 39 ... 10
Pool objective bound 41

Optimal solution found (tolerance 1.00e-04)
Best objective 4.100000000000e+01, best bound 4.100000000000e+01, gap 0.0000%
Optimize a model with 7234 rows, 7232 columns and 29276 nonzeros
Variable types: 0 continuous, 7232 integer (7232 binary)
Coefficient statistics:
  Matrix range     [1e+00, 9e+00]
  Objective range  [2e-01, 8e-01]
  Bounds range     [1e+00, 1e+00]
  RHS range        [1e+00, 5e+01]
Found heuristic solution: objective -6.4
Presolve removed 6377 rows and 6361 columns
Presolve time: 0.03s
Presolved: 857 rows, 871 columns, 5856 nonzeros

Loaded MIP start with objective 3.10862e-15

Variable types: 0 continuous, 871 integer (871 binary)

Root relaxation: objective 6.735294e+00, 86 iterations, 0.00 seconds

    Nodes    |    Current Node    |     Objective Bounds      |     Work
 Expl Unexpl |  Obj  Depth IntInf | Incumbent    BestBd   Gap | It/Node Time

     0     0    6.73529    0   48    0.00000    6.73529      -     -    0s
     0     0    6.00000    0    6    0.00000    6.00000      -     -    0s
     0     0    6.00000    0    2    0.00000    6.00000      -     -    0s
     0     0    6.00000    0    2    0.00000    6.00000      -     -    0s
H    0     0                       2.5800000    6.00000   133%     -    0s
     0     2    6.00000    0    2    2.58000    6.00000   133%     -    0s

Cutting planes:
  Gomory: 3
  Clique: 20
  MIR: 1
  Zero half: 1
  Lazy constraints: 15

Explored 25 nodes (457 simplex iterations) in 0.49 seconds
Thread count was 12 (of 12 available processors)

Solution count 2: 2.58 3.10862e-15 
Pool objective bound 2.58

Optimal solution found (tolerance 1.00e-04)
Best objective 2.580000000000e+00, best bound 2.580000000000e+00, gap 0.0000%
Optimize a model with 7234 rows, 7232 columns and 29276 nonzeros
Variable types: 0 continuous, 7232 integer (7232 binary)
Coefficient statistics:
  Matrix range     [1e+00, 9e+00]
  Objective range  [1e-01, 9e-01]
  Bounds range     [1e+00, 1e+00]
  RHS range        [1e+00, 5e+01]
Found heuristic solution: objective -8.06452
Presolve removed 6377 rows and 6361 columns
Presolve time: 0.02s
Presolved: 857 rows, 871 columns, 5856 nonzeros

Loaded MIP start with objective 7.77156e-16

Variable types: 0 continuous, 871 integer (871 binary)

Root relaxation: objective 2.574004e+00, 86 iterations, 0.00 seconds

    Nodes    |    Current Node    |     Objective Bounds      |     Work
 Expl Unexpl |  Obj  Depth IntInf | Incumbent    BestBd   Gap | It/Node Time

     0     0    2.57400    0   48    0.00000    2.57400      -     -    0s
     0     0    1.83871    0    8    0.00000    1.83871      -     -    0s
     0     0    1.83871    0    7    0.00000    1.83871      -     -    0s
     0     0    1.83871    0    8    0.00000    1.83871      -     -    0s
     0     0    1.83871    0    2    0.00000    1.83871      -     -    0s
     0     0    1.83871    0    2    0.00000    1.83871      -     -    0s
     0     2    1.83871    0    2    0.00000    1.83871      -     -    0s

Cutting planes:
  Gomory: 2
  Clique: 21
  MIR: 3
  Zero half: 1
  Lazy constraints: 9

Explored 18 nodes (590 simplex iterations) in 0.44 seconds
Thread count was 12 (of 12 available processors)

Solution count 1: 7.77156e-16 
Pool objective bound 7.77156e-16

Optimal solution found (tolerance 1.00e-04)
Best objective 7.771561172376e-16, best bound 7.771561172376e-16, gap -
